Route #1: 1 6 16 21 17 9 10 2 3 7 11 22 29 33 40 53 61 54 55 62 67 73 86 79 85 78 66 60 46 39 32 38 52 65 72 83 84 95 96 97 98 99 100 87 80 74 88 81 75 68 63 56 41 34 23 12 24 30 42 43 35 25 18 13 4 5 14 15 26 36 48 44 47 57 69 64 76 77 70 59 58 49 50 37 27 19 8 20 28 31 45 51 71 94 93 92 90 82 89 91
Cost 46453
